Route #1: 67 77 2 17 69 105 64 94 57
Route #2: 74 99 11 34 72 29 96
Route #3: 82 63 31 40 13 54 85 21 49
Route #4: 45 100 51 60 87 53 1 104
Route #5: 5 101 103 28 93 97 43 76
Route #6: 83 48 8 36 91 88 58 14
Route #7: 44 15 12 9 84 75 7
Route #8: 52 92 102 24 90 26 62
Route #9: 33 22
Route #10: 66 46 71 79 37 27 19 78
Route #11: 86 18 41 10 16 20 56
Route #12: 35 73 32 3 23 42 30 89 59
Route #13: 55 98 4 70 6 81 50 39
Route #14: 25 47 61 80 65 38 95 68
Cost 26381
